Metadata-Version: 2.1
Name: mip-tool
Version: 0.0.3
Summary: `mip-tool` is a package for Python-MIP.
Home-page: https://github.com/SaitoTsutomu/mip-tool
License: MIT
Author: Saito Tsutomu
Author-email: tsutomu7@hotmail.co.jp
Requires-Python: >=3.8,<4.0
Classifier: Development Status :: 1 - Planning
Classifier: License :: OSI Approved :: MIT License
Classifier: Programming Language :: Python
Classifier: Programming Language :: Python :: 3
Classifier: Programming Language :: Python :: 3.8
Classifier: Programming Language :: Python :: 3.9
Classifier: Topic :: Scientific/Engineering
Classifier: Topic :: Software Development
Requires-Dist: mip (>=1.13.0,<2.0.0)
Requires-Dist: more-itertools (>=8.6.0,<9.0.0)
Requires-Dist: numpy (>=1.19.5,<2.0.0)
Description-Content-Type: text/markdown

# MIP-Tool

MIP-Tool is a package for [Python-MIP](https://www.python-mip.com/).

## Installation

`pip install mip-tool`

## Example

### Non-convex piecewise linear constraint

```python
import numpy as np
from mip import INF, Model, OptimizationStatus
from mip_tool import add_lines, show_model

m = Model()
x = m.add_var("x", lb=-INF)
y = m.add_var("y", obj=-1)
curve = np.array([[-2, 6], [-1, 7], [2, -2], [4, 5]])
add_lines(m, curve, x, y)
m.optimize()
assert m.status == OptimizationStatus.OPTIMAL
assert (x.x, y.x) == (-1, 7)
show_model(m)
```

*Output*

```
\Problem name: 

Minimize
OBJROW: - y
Subject To
constr(0):  - x + w_0 + w_1 + w_2 = 2
constr(1):  - y + w_0 -3 w_1 + 3.50000 w_2 = -6
constr(2):  - w_0 + z_0 <= -0
constr(3):  w_0 <= 1
constr(4):  - w_1 + 3 z_1 <= -0
constr(5):  - w_1 + 3 z_0 >= -0
constr(6):  - w_2 + 2 z_1 >= -0
Bounds
 x Free
 0 <= z_0 <= 1
 0 <= z_1 <= 1
Integers
z_0 z_1 
End
```

## F example

attention: Change Model and Var when Using F.

```python
from mip_tool.func import F

m = Model()
x = m.add_var("x")
y = m.add_var("y", obj=-1)
m += y <= F([[0, 2], [1, 3], [2, 2]], x)
m.optimize()
print(x.x, y.x)  # 1.0 3.0
```

- `y <= F(curve, x)` and `y >= F(curve, x)` call `add_lines_conv`.
- `y == F(curve, x)` calls `add_lines`.

